456
1 0 5 229 0 456 1 455 1 454 1 453 1
2 0 5 230 1 328 1 438 1 367 1 366 1
3 0 5 231 1 319 1 296 1 431 1 368 1
4 0 5 232 1 237 1 283 1 415 1 414 1
5 0 5 233 1 301 1 350 1 394 1 417 1
6 0 5 234 1 422 1 372 1 275 1 405 1
7 0 5 235 1 351 1 299 1 368 1 391 1
8 0 5 236 1 410 1 386 1 346 1 439 1
9 0 5 237 1 415 1 414 1 356 1 361 1
10 0 5 238 1 230 1 328 1 438 1 310 1
11 0 5 239 1 422 1 372 1 275 1 405 1
12 0 5 240 1 235 1 320 1 272 1 351 1
13 0 5 241 1 358 1 389 1 240 1 276 1
14 0 5 242 1 272 1 235 1 231 1 351 1
15 0 5 243 1 325 1 434 1 318 1 359 1
16 0 5 244 1 288 1 427 1 303 1 430 1
17 0 5 245 1 369 1 386 1 416 1 371 1
18 0 5 246 1 268 1 336 1 229 1 282 1
19 0 5 247 1 283 1 287 1 237 1 414 1
20 0 5 248 1 421 1 331 1 425 1 375 1
21 0 5 249 1 309 1 402 1 383 1 260 1
22 0 5 250 1 304 1 385 1 341 1 392 1
23 0 5 251 1 380 1 437 1 428 1 245 1
24 0 5 252 1 304 1 392 1 385 1 341 1
25 0 5 253 1 436 1 290 1 401 1 329 1
26 0 5 254 1 401 1 436 1 290 1 306 1
27 0 5 255 1 381 1 269 1 435 1 425 1
28 0 5 256 1 402 1 383 1 309 1 253 1
29 0 5 257 1 303 1 288 1 378 1 427 1
30 0 5 258 1 316 1 281 1 271 1 424 1
31 0 5 259 1 421 1 331 1 375 1 425 1
32 0 5 260 1 254 1 253 1 401 1 290 1
33 0 5 261 1 315 1 353 1 344 1 370 1
34 0 5 262 1 350 1 394 1 301 1 417 1
35 0 5 263 1 324 1 417 1 387 1 337 1
36 0 5 264 1 355 1 428 1 300 1 238 1
37 0 5 265 1 262 1 350 1 335 1 394 1
38 0 5 266 1 310 1 367 1 439 1 366 1
39 0 5 267 1 379 1 251 1 287 1 413 1
40 0 5 268 1 336 1 229 1 302 1 274 1
41 0 5 269 1 382 1 398 1 326 1 243 1
42 0 5 270 1 309 1 260 1 402 1 253 1
43 0 5 271 1 352 1 363 1 399 1 279 1
44 0 5 272 1 231 1 351 1 319 1 296 1
45 0 5 273 1 331 1 375 1 421 1 425 1
46 0 5 274 1 402 1 383 1 305 1 253 1
47 0 5 275 1 357 1 433 1 265 1 354 1
48 0 5 276 1 320 1 235 1 299 1 351 1
49 0 5 277 1 381 1 269 1 435 1 326 1
50 0 5 278 1 390 1 386 1 284 1 232 1
51 0 5 279 1 385 1 341 1 435 1 381 1
52 0 5 280 1 403 1 365 1 418 1 432 1
53 0 5 281 1 321 1 271 1 352 1 411 1
54 0 5 282 1 412 1 373 1 348 1 328 1
55 0 5 283 1 414 1 415 1 361 1 356 1
56 0 5 284 1 287 1 413 1 264 1 428 1
57 0 5 285 1 292 1 340 1 343 1 380 1
58 0 5 286 1 372 1 422 1 405 1 275 1
59 0 5 287 1 413 1 414 1 428 1 266 1
60 0 5 288 1 427 1 303 1 257 1 430 1
61 0 5 289 1 313 1 372 1 405 1 422 1
62 0 5 290 1 329 1 293 1 306 1 339 1
63 0 5 291 1 331 1 421 1 375 1 425 1
64 0 5 292 1 285 1 340 1 406 1 343 1
65 0 5 293 1 408 1 391 1 338 1 249 1
66 0 5 294 1 315 1 344 1 353 1 370 1
67 0 5 295 1 389 1 276 1 358 1 240 1
68 0 5 296 1 246 1 268 1 336 1 229 1
69 0 5 297 1 305 1 325 1 359 1 430 1
70 0 5 298 1 429 1 299 1 280 1 403 1
71 0 5 299 1 368 1 339 1 391 1 429 1
72 0 5 300 1 238 1 230 1 310 1 328 1
73 0 5 301 1 394 1 417 1 337 1 409 1
74 0 5 302 1 358 1 389 1 240 1 242 1
75 0 5 303 1 378 1 427 1 288 1 257 1
76 0 5 304 1 392 1 341 1 423 1 397 1
77 0 5 305 1 325 1 359 1 430 1 257 1
78 0 5 306 1 339 1 293 1 391 1 408 1
79 0 5 307 1 404 1 242 1 272 1 302 1
80 0 5 308 1 258 1 434 1 424 1 316 1
81 0 5 309 1 260 1 254 1 383 1 253 1
82 0 5 310 1 367 1 230 1 366 1 328 1
83 0 5 311 1 313 1 420 1 405 1 372 1
84 0 5 312 1 372 1 405 1 422 1 275 1
85 0 5 313 1 420 1 354 1 405 1 275 1
86 0 5 314 1 309 1 260 1 402 1 254 1
87 0 5 315 1 344 1 370 1 323 1 298 1
88 0 5 316 1 271 1 352 1 363 1 399 1
89 0 5 317 1 237 1 283 1 415 1 414 1
90 0 5 318 1 334 1 359 1 244 1 430 1
91 0 5 319 1 431 1 296 1 246 1 268 1
92 0 5 320 1 299 1 351 1 429 1 368 1
93 0 5 321 1 352 1 411 1 250 1 252 1
94 0 5 322 1 287 1 395 1 264 1 413 1
95 0 5 323 1 280 1 429 1 403 1 299 1
96 0 5 324 1 387 1 337 1 347 1 234 1
97 0 5 325 1 359 1 430 1 257 1 334 1
98 0 5 326 1 243 1 325 1 434 1 318 1
99 0 5 327 1 386 1 410 1 346 1 439 1
100 0 5 328 1 282 1 366 1 412 1 328 1
101 0 5 329 1 293 1 339 1 408 1 391 1
102 0 5 330 1 395 1 264 1 355 1 284 1
103 0 5 331 1 375 1 425 1 297 1 326 1
104 0 5 332 1 353 1 370 1 389 1 315 1
105 0 5 333 1 283 1 287 1 414 1 237 1
106 0 5 334 1 244 1 430 1 257 1 288 1
107 0 5 335 1 396 1 350 1 263 1 394 1
108 0 5 336 1 229 1 274 1 302 1 342 1
109 0 5 337 1 387 1 347 1 239 1 234 1
110 0 5 338 1 229 1 378 1 274 1 249 1
111 0 5 339 1 391 1 408 1 338 1 249 1
112 0 5 340 1 285 1 292 1 406 1 343 1
113 0 5 341 1 397 1 308 1 382 1 398 1
114 0 5 342 1 404 1 242 1 272 1 302 1
115 0 5 343 1 379 1 287 1 251 1 380 1
116 0 5 344 1 323 1 298 1 280 1 299 1
117 0 5 345 1 358 1 389 1 240 1 242 1
118 0 5 346 1 278 1 390 1 346 1 284 1
119 0 5 347 1 372 1 422 1 405 1 275 1
120 0 5 348 1 395 1 264 1 355 1 284 1
121 0 5 349 1 421 1 331 1 425 1 375 1
122 0 5 350 1 394 1 263 1 417 1 324 1
123 0 5 351 1 368 1 393 1 376 1 384 1
124 0 5 352 1 427 1 279 1 363 1 399 1
125 0 5 353 1 370 1 344 1 298 1 276 1
126 0 5 354 1 233 1 335 1 301 1 262 1
127 0 5 355 1 300 1 238 1 266 1 230 1
128 0 5 356 1 327 1 236 1 386 1 410 1
129 0 5 357 1 335 1 396 1 262 1 350 1
130 0 5 358 1 240 1 276 1 242 1 235 1
131 0 5 359 1 430 1 257 1 244 1 303 1
132 0 5 360 1 331 1 421 1 375 1 425 1
133 0 5 361 1 236 1 327 1 410 1 386 1
134 0 5 362 1 381 1 435 1 269 1 425 1
135 0 5 363 1 385 1 341 1 435 1 269 1
136 0 5 364 1 287 1 413 1 428 1 333 1
137 0 5 365 1 418 1 432 1 332 1 426 1
138 0 5 366 1 412 1 285 1 282 1 373 1
139 0 5 367 1 366 1 328 1 438 1 285 1
140 0 5 368 1 391 1 393 1 376 1 295 1
141 0 5 369 1 416 1 371 1 292 1 340 1
142 0 5 370 1 298 1 429 1 323 1 299 1
143 0 5 371 1 340 1 292 1 285 1 406 1
144 0 5 372 1 405 1 275 1 265 1 433 1
145 0 5 373 1 395 1 264 1 355 1 284 1
146 0 5 374 1 424 1 258 1 281 1 316 1
147 0 5 375 1 297 1 326 1 305 1 325 1
148 0 5 376 1 389 1 276 1 358 1 353 1
149 0 5 377 1 353 1 370 1 389 1 298 1
150 0 5 378 1 362 1 257 1 430 1 277 1
151 0 5 379 1 251 1 413 1 380 1 437 1
152 0 5 380 1 245 1 369 1 327 1 386 1
153 0 5 381 1 269 1 435 1 425 1 382 1
154 0 5 382 1 398 1 243 1 434 1 318 1
155 0 5 383 1 253 1 436 1 290 1 254 1
156 0 5 384 1 404 1 242 1 272 1 302 1
157 0 5 385 1 341 1 435 1 269 1 397 1
158 0 5 386 1 346 1 439 1 416 1 292 1
159 0 5 387 1 337 1 347 1 419 1 239 1
160 0 5 388 1 379 1 251 1 287 1 380 1
161 0 5 389 1 276 1 240 1 320 1 235 1
162 0 5 390 1 414 1 287 1 283 1 361 1
163 0 5 391 1 338 1 249 1 256 1 274 1
164 0 5 392 1 423 1 397 1 374 1 308 1
165 0 5 393 1 389 1 276 1 358 1 320 1
166 0 5 394 1 417 1 324 1 337 1 387 1
167 0 5 395 1 264 1 355 1 300 1 238 1
168 0 5 396 1 263 1 394 1 324 1 417 1
169 0 5 397 1 308 1 374 1 398 1 258 1
170 0 5 398 1 434 1 318 1 325 1 334 1
171 0 5 399 1 385 1 341 1 435 1 381 1
172 0 5 400 1 315 1 353 1 344 1 370 1
173 0 5 401 1 306 1 329 1 339 1 293 1
174 0 5 402 1 383 1 253 1 436 1 290 1
175 0 5 403 1 365 1 418 1 432 1 426 1
176 0 5 404 1 242 1 240 1 272 1 235 1
177 0 5 405 1 265 1 433 1 262 1 233 1
178 0 5 406 1 237 1 283 1 415 1 414 1
179 0 5 407 1 402 1 383 1 297 1 253 1
180 0 5 408 1 338 1 229 1 249 1 391 1
181 0 5 409 1 313 1 420 1 405 1 372 1
182 0 5 410 1 346 1 439 1 278 1 386 1
183 0 5 411 1 304 1 392 1 341 1 385 1
184 0 5 412 1 373 1 282 1 328 1 284 1
185 0 5 413 1 428 1 380 1 437 1 266 1
186 0 5 414 1 361 1 356 1 236 1 327 1
187 0 5 415 1 356 1 361 1 327 1 236 1
188 0 5 416 1 371 1 292 1 340 1 285 1
189 0 5 417 1 337 1 387 1 324 1 234 1
190 0 5 418 1 418 1 332 1 426 1 377 1
191 0 5 419 1 422 1 372 1 275 1 405 1
192 0 5 420 1 354 1 357 1 265 1 433 1
193 0 5 421 1 425 1 375 1 326 1 297 1
194 0 5 422 1 275 1 405 1 357 1 265 1
195 0 5 423 1 374 1 308 1 424 1 258 1
196 0 5 424 1 281 1 316 1 321 1 271 1
197 0 5 425 1 326 1 243 1 325 1 434 1
198 0 5 426 1 353 1 370 1 389 1 298 1
199 0 5 427 1 257 1 362 1 430 1 288 1
200 0 5 428 1 266 1 310 1 367 1 366 1
201 0 5 429 1 403 1 365 1 418 1 432 1
202 0 5 430 1 303 1 288 1 378 1 427 1
203 0 5 431 1 246 1 268 1 336 1 229 1
204 0 5 432 1 418 1 332 1 426 1 377 1
205 0 5 433 1 262 1 350 1 335 1 301 1
206 0 5 434 1 334 1 359 1 244 1 430 1
207 0 5 435 1 382 1 326 1 398 1 243 1
208 0 5 436 1 329 1 306 1 293 1 339 1
209 0 5 437 1 245 1 327 1 369 1 386 1
210 0 5 438 1 282 1 328 1 366 1 412 1
211 0 5 439 1 278 1 346 1 390 1 284 1
212 0 5 440 0 229 1 440 1 441 1 442 1
213 0 5 441 0 229 1 440 1 441 1 442 1
214 0 5 442 0 229 1 440 1 441 1 442 1
215 0 5 443 0 229 1 440 1 441 1 442 1
216 0 5 444 0 229 1 440 1 441 1 442 1
217 0 5 445 0 229 1 440 1 441 1 442 1
218 0 5 446 0 229 1 440 1 441 1 442 1
219 0 5 447 0 229 1 440 1 441 1 442 1
220 0 5 448 0 229 1 440 1 441 1 442 1
221 0 5 449 0 229 1 440 1 441 1 442 1
222 0 5 450 0 229 1 440 1 441 1 442 1
223 0 5 451 0 229 1 440 1 441 1 442 1
224 0 5 452 0 229 1 440 1 441 1 442 1
225 0 5 453 0 229 1 440 1 441 1 442 1
226 0 5 454 0 229 1 440 1 441 1 442 1
227 0 5 455 0 229 1 440 1 441 1 442 1
228 0 5 456 0 229 1 440 1 441 1 442 1
229 0 5 1 0 228 1 227 1 226 1 225 1
230 0 5 2 1 10 1 72 1 82 1 127 1
231 0 5 3 1 44 1 7 1 14 1 12 1
232 0 5 4 1 112 1 50 1 64 1 118 1
233 0 5 5 1 126 1 34 1 205 1 37 1
234 0 5 6 1 109 1 159 1 189 1 96 1
235 0 5 7 1 12 1 14 1 48 1 130 1
236 0 5 8 1 133 1 128 1 186 1 99 1
237 0 5 9 1 89 1 4 1 178 1 19 1
238 0 5 10 1 72 1 127 1 38 1 200 1
239 0 5 11 1 109 1 159 1 96 1 189 1
240 0 5 12 1 130 1 161 1 74 1 13 1
241 0 5 13 1 114 1 117 1 163 1 74 1
242 0 5 14 1 176 1 79 1 114 1 156 1
243 0 5 15 1 98 1 154 1 41 1 207 1
244 0 5 16 1 106 1 206 1 90 1 131 1
245 0 5 17 1 152 1 209 1 200 1 23 1
246 0 5 18 1 203 1 68 1 91 1 100 1
247 0 5 19 1 162 1 50 1 64 1 118 1
248 0 5 20 1 150 1 202 1 29 1 16 1
249 0 5 21 1 163 1 180 1 46 1 111 1
250 0 5 22 1 93 1 135 1 171 1 51 1
251 0 5 23 1 151 1 39 1 160 1 115 1
252 0 5 24 1 135 1 171 1 93 1 51 1
253 0 5 25 1 155 1 174 1 21 1 42 1
254 0 5 26 1 32 1 81 1 155 1 42 1
255 0 5 27 1 199 1 29 1 60 1 202 1
256 0 5 28 1 150 1 163 1 110 1 46 1
257 0 5 29 1 131 1 202 1 106 1 97 1
258 0 5 30 1 80 1 146 1 90 1 206 1
259 0 5 31 1 150 1 134 1 202 1 29 1
260 0 5 32 1 81 1 86 1 42 1 21 1
261 0 5 33 1 204 1 190 1 137 1 175 1
262 0 5 34 1 205 1 37 1 177 1 47 1
263 0 5 35 1 168 1 122 1 107 1 129 1
264 0 5 36 1 167 1 94 1 120 1 102 1
265 0 5 37 1 177 1 47 1 144 1 84 1
266 0 5 38 1 200 1 209 1 152 1 185 1
267 0 5 39 1 112 1 57 1 64 1 115 1
268 0 5 40 1 18 1 203 1 68 1 140 1
269 0 5 41 1 153 1 27 1 49 1 134 1
270 0 5 42 1 163 1 180 1 46 1 111 1
271 0 5 43 1 88 1 30 1 106 1 196 1
272 0 5 44 1 14 1 176 1 12 1 74 1
273 0 5 45 1 150 1 134 1 132 1 29 1
274 0 5 46 1 1 1 150 1 110 1 163 1
275 0 5 47 1 194 1 6 1 11 1 144 1
276 0 5 48 1 161 1 67 1 130 1 13 1
277 0 5 49 1 150 1 199 1 60 1 75 1
278 0 5 50 1 211 1 118 1 158 1 182 1
279 0 5 51 1 124 1 43 1 135 1 88 1
280 0 5 52 1 95 1 71 1 70 1 116 1
281 0 5 53 1 196 1 88 1 30 1 146 1
282 0 5 54 1 100 1 210 1 138 1 184 1
283 0 5 55 1 19 1 105 1 4 1 89 1
284 0 5 56 1 184 1 54 1 50 1 57 1
285 0 5 57 1 64 1 112 1 143 1 188 1
286 0 5 58 1 109 1 159 1 191 1 189 1
287 0 5 59 1 136 1 56 1 94 1 105 1
288 0 5 60 1 16 1 29 1 202 1 106 1
289 0 5 61 1 119 1 109 1 189 1 73 1
290 0 5 62 1 25 1 155 1 26 1 21 1
291 0 5 63 1 1 1 150 1 75 1 202 1
292 0 5 64 1 143 1 112 1 57 1 188 1
293 0 5 65 1 101 1 62 1 208 1 78 1
294 0 5 66 1 204 1 190 1 104 1 149 1
295 0 5 67 1 163 1 165 1 117 1 140 1
296 0 5 68 1 91 1 140 1 203 1 123 1
297 0 5 69 1 147 1 103 1 45 1 197 1
298 0 5 70 1 142 1 116 1 198 1 125 1
299 0 5 71 1 92 1 7 1 165 1 148 1
300 0 5 72 1 127 1 200 1 36 1 145 1
301 0 5 73 1 5 1 122 1 126 1 37 1
302 0 5 74 1 163 1 114 1 156 1 140 1
303 0 5 75 1 29 1 202 1 199 1 60 1
304 0 5 76 1 183 1 24 1 22 1 135 1
305 0 5 77 1 69 1 98 1 147 1 150 1
306 0 5 78 1 173 1 208 1 62 1 26 1
307 0 5 79 1 1 1 108 1 110 1 156 1
308 0 5 80 1 169 1 113 1 195 1 154 1
309 0 5 81 1 86 1 42 1 21 1 28 1
310 0 5 82 1 38 1 200 1 10 1 72 1
311 0 5 83 1 84 1 11 1 189 1 73 1
312 0 5 84 1 191 1 109 1 159 1 119 1
313 0 5 85 1 181 1 83 1 61 1 11 1
314 0 5 86 1 163 1 179 1 180 1 46 1
315 0 5 87 1 66 1 172 1 33 1 104 1
316 0 5 88 1 30 1 196 1 106 1 80 1
317 0 5 89 1 50 1 112 1 118 1 211 1
318 0 5 90 1 170 1 15 1 206 1 98 1
319 0 5 91 1 3 1 123 1 44 1 140 1
320 0 5 92 1 48 1 12 1 161 1 67 1
321 0 5 93 1 53 1 43 1 124 1 196 1
322 0 5 94 1 184 1 54 1 210 1 100 1
323 0 5 95 1 116 1 87 1 172 1 33 1
324 0 5 96 1 35 1 166 1 168 1 189 1
325 0 5 97 1 15 1 98 1 197 1 41 1
326 0 5 98 1 197 1 193 1 31 1 121 1
327 0 5 99 1 128 1 133 1 187 1 186 1
328 0 5 100 1 2 1 139 1 100 1 10 1
329 0 5 101 1 62 1 208 1 173 1 25 1
330 0 5 102 1 184 1 54 1 210 1 138 1
331 0 5 103 1 45 1 132 1 63 1 31 1
332 0 5 104 1 204 1 190 1 149 1 137 1
333 0 5 105 1 50 1 162 1 118 1 211 1
334 0 5 106 1 206 1 90 1 170 1 97 1
335 0 5 107 1 129 1 126 1 37 1 205 1
336 0 5 108 1 40 1 18 1 203 1 68 1
337 0 5 109 1 189 1 96 1 159 1 166 1
338 0 5 110 1 180 1 163 1 65 1 111 1
339 0 5 111 1 78 1 101 1 173 1 62 1
340 0 5 112 1 143 1 188 1 64 1 57 1
341 0 5 113 1 157 1 51 1 171 1 135 1
342 0 5 114 1 1 1 110 1 108 1 140 1
343 0 5 115 1 112 1 57 1 64 1 143 1
344 0 5 116 1 87 1 66 1 172 1 33 1
345 0 5 117 1 114 1 163 1 140 1 74 1
346 0 5 118 1 182 1 158 1 118 1 8 1
347 0 5 119 1 159 1 109 1 96 1 189 1
348 0 5 120 1 54 1 184 1 210 1 100 1
349 0 5 121 1 150 1 29 1 202 1 60 1
350 0 5 122 1 34 1 37 1 205 1 107 1
351 0 5 123 1 7 1 92 1 44 1 12 1
352 0 5 124 1 43 1 88 1 199 1 106 1
353 0 5 125 1 104 1 198 1 149 1 33 1
354 0 5 126 1 192 1 37 1 205 1 85 1
355 0 5 127 1 36 1 167 1 120 1 145 1
356 0 5 128 1 187 1 186 1 9 1 55 1
357 0 5 129 1 47 1 192 1 177 1 37 1
358 0 5 130 1 74 1 13 1 117 1 67 1
359 0 5 131 1 97 1 15 1 98 1 199 1
360 0 5 132 1 150 1 179 1 202 1 29 1
361 0 5 133 1 186 1 187 1 55 1 162 1
362 0 5 134 1 150 1 199 1 29 1 202 1
363 0 5 135 1 124 1 43 1 88 1 53 1
364 0 5 136 1 184 1 57 1 50 1 112 1
365 0 5 137 1 175 1 201 1 52 1 71 1
366 0 5 138 1 139 1 100 1 210 1 82 1
367 0 5 139 1 82 1 38 1 200 1 184 1
368 0 5 140 1 123 1 71 1 7 1 165 1
369 0 5 141 1 17 1 209 1 152 1 99 1
370 0 5 142 1 125 1 104 1 198 1 149 1
371 0 5 143 1 188 1 141 1 158 1 209 1
372 0 5 144 1 84 1 58 1 119 1 61 1
373 0 5 145 1 184 1 54 1 138 1 210 1
374 0 5 146 1 195 1 164 1 169 1 183 1
375 0 5 147 1 103 1 45 1 132 1 31 1
376 0 5 148 1 163 1 117 1 165 1 140 1
377 0 5 149 1 204 1 190 1 165 1 137 1
378 0 5 150 1 75 1 60 1 29 1 202 1
379 0 5 151 1 160 1 39 1 115 1 178 1
380 0 5 152 1 23 1 185 1 178 1 115 1
381 0 5 153 1 27 1 49 1 134 1 199 1
382 0 5 154 1 41 1 207 1 134 1 49 1
383 0 5 155 1 174 1 28 1 21 1 179 1
384 0 5 156 1 1 1 110 1 108 1 140 1
385 0 5 157 1 51 1 135 1 171 1 124 1
386 0 5 158 1 99 1 128 1 50 1 178 1
387 0 5 159 1 96 1 109 1 189 1 35 1
388 0 5 160 1 57 1 112 1 64 1 115 1
389 0 5 161 1 67 1 148 1 13 1 165 1
390 0 5 162 1 50 1 118 1 211 1 56 1
391 0 5 163 1 111 1 65 1 180 1 110 1
392 0 5 164 1 76 1 183 1 24 1 22 1
393 0 5 165 1 163 1 117 1 140 1 74 1
394 0 5 166 1 122 1 34 1 37 1 205 1
395 0 5 167 1 120 1 102 1 145 1 94 1
396 0 5 168 1 107 1 129 1 122 1 34 1
397 0 5 169 1 113 1 207 1 41 1 154 1
398 0 5 170 1 154 1 41 1 207 1 98 1
399 0 5 171 1 124 1 43 1 135 1 53 1
400 0 5 172 1 204 1 190 1 137 1 104 1
401 0 5 173 1 26 1 25 1 32 1 21 1
402 0 5 174 1 28 1 179 1 46 1 21 1
403 0 5 175 1 52 1 201 1 95 1 71 1
404 0 5 176 1 79 1 156 1 114 1 74 1
405 0 5 177 1 144 1 84 1 61 1 58 1
406 0 5 178 1 112 1 64 1 143 1 188 1
407 0 5 179 1 150 1 163 1 110 1 134 1
408 0 5 180 1 65 1 111 1 101 1 62 1
409 0 5 181 1 84 1 11 1 83 1 189 1
410 0 5 182 1 8 1 99 1 133 1 128 1
411 0 5 183 1 135 1 93 1 171 1 124 1
412 0 5 184 1 54 1 138 1 100 1 210 1
413 0 5 185 1 59 1 56 1 136 1 94 1
414 0 5 186 1 55 1 105 1 9 1 19 1
415 0 5 187 1 9 1 55 1 89 1 4 1
416 0 5 188 1 141 1 158 1 152 1 17 1
417 0 5 189 1 166 1 35 1 122 1 159 1
418 0 5 190 1 137 1 190 1 175 1 201 1
419 0 5 191 1 159 1 109 1 96 1 189 1
420 0 5 192 1 85 1 83 1 181 1 61 1
421 0 5 193 1 20 1 121 1 31 1 27 1
422 0 5 194 1 11 1 6 1 191 1 159 1
423 0 5 195 1 164 1 76 1 24 1 183 1
424 0 5 196 1 146 1 80 1 195 1 30 1
425 0 5 197 1 193 1 31 1 121 1 20 1
426 0 5 198 1 204 1 190 1 175 1 137 1
427 0 5 199 1 60 1 16 1 29 1 202 1
428 0 5 200 1 185 1 59 1 56 1 136 1
429 0 5 201 1 70 1 95 1 198 1 142 1
430 0 5 202 1 131 1 106 1 202 1 97 1
431 0 5 203 1 91 1 140 1 123 1 3 1
432 0 5 204 1 137 1 190 1 175 1 201 1
433 0 5 205 1 177 1 37 1 47 1 144 1
434 0 5 206 1 170 1 15 1 97 1 98 1
435 0 5 207 1 153 1 49 1 27 1 134 1
436 0 5 208 1 25 1 62 1 155 1 26 1
437 0 5 209 1 23 1 152 1 185 1 178 1
438 0 5 210 1 2 1 100 1 139 1 10 1
439 0 5 211 1 182 1 118 1 158 1 8 1
440 0 5 212 0 228 1 227 1 226 1 225 1
441 0 5 213 0 228 1 227 1 226 1 225 1
442 0 5 214 0 228 1 227 1 226 1 225 1
443 0 5 215 0 228 1 227 1 226 1 225 1
444 0 5 216 0 228 1 227 1 226 1 225 1
445 0 5 217 0 228 1 227 1 226 1 225 1
446 0 5 218 0 228 1 227 1 226 1 225 1
447 0 5 219 0 228 1 227 1 226 1 225 1
448 0 5 220 0 228 1 227 1 226 1 225 1
449 0 5 221 0 228 1 227 1 226 1 225 1
450 0 5 222 0 228 1 227 1 226 1 225 1
451 0 5 223 0 228 1 227 1 226 1 225 1
452 0 5 224 0 228 1 227 1 226 1 225 1
453 0 5 225 0 228 1 227 1 226 1 225 1
454 0 5 226 0 228 1 227 1 226 1 225 1
455 0 5 227 0 228 1 227 1 226 1 225 1
456 0 5 228 0 228 1 227 1 226 1 225 1
-1
EOF
